(set-logic LIA)
(synth-fun next ((brake Int) (distance Int) (speed Int) (throttle Int) (ignition Bool) (time Int) ) Int
	((Start Int) (Var Int) (StartBool Bool))
	((Start Int (
				 1
				 3
				 4
				 6
				 (ite StartBool Start Start)))

	(Var Int (
			 0
			 1
			 2
			 4
			 6
			 8
			 12
			 592
			 783
			 brake
			 distance
			 speed
			 throttle
			 time
			 (+ Var Var)						
			 (- Var Var)						
			 (* Var Var)))

	(StartBool Bool (
				 	 ignition
					(= Var Var)						
					(>= Var Var)						
					(<= Var Var)						
					(and StartBool StartBool)			
					(or  StartBool StartBool)				
					(not StartBool)))))

(constraint (= (next 0 0 0 0 true 900 ) 4))
(constraint (= (next 0 0 0 0 true 1693 ) 3))
(constraint (= (next 2 0 0 0 true 113 ) 6))
(constraint (= (next 0 10 21 1 true 759 ) 1))

(check-synth)
